c
c Renamed file of cm163a.cnf 
c Variables are renamed according to left2right.ord 
c
c Date: Thu Apr 29 14:49:13 PDT 2004 by (jinbo)
c Host: Linux solution 2.4.18-4smp #1 SMP Thu May 2 18:32:34 EDT 2002 i686 unknown
c
c Copyright (c) 2001 Fadi A. Aloul.
c
p cnf 68 157
-20 -21 0
-22 -21 0
21 20 22 0
-21 18 0
-13 -19 0
-22 -19 0
19 13 22 0
-19 18 0
-20 -17 0
-14 -17 0
17 20 14 0
-17 18 0
-13 -12 0
-14 -12 0
12 13 14 0
-12 18 0
-18 21 19 17 12 0
-26 -27 0
-28 -27 0
27 26 28 0
-27 24 0
-13 -23 0
-28 -23 0
23 13 28 0
-23 24 0
-26 -25 0
-14 -25 0
25 26 14 0
-25 24 0
-13 -15 0
-14 -15 0
15 13 14 0
-15 24 0
-24 27 23 25 15 0
-32 -33 0
-34 -33 0
33 32 34 0
-33 30 0
-13 -31 0
-34 -31 0
31 13 34 0
-31 30 0
-32 -29 0
-14 -29 0
29 32 14 0
-29 30 0
-13 -16 0
-14 -16 0
16 13 14 0
-16 30 0
-30 33 31 29 16 0
-5 -7 0
-10 -7 0
7 5 10 0
-7 8 0
-13 -9 0
-10 -9 0
9 13 10 0
-9 8 0
-5 -6 0
-14 -6 0
6 5 14 0
-6 8 0
-13 -11 0
-14 -11 0
11 13 14 0
-11 8 0
-8 7 9 6 11 0
-62 -58 0
57 -58 0
58 62 -57 0
-58 59 0
-59 58 0
-1 -4 0
3 -4 0
4 1 -3 0
-4 13 0
-13 4 0
1 -2 0
3 -2 0
2 -1 -3 0
-2 14 0
-14 2 0
-51 -52 0
50 -52 0
52 51 -50 0
-52 22 0
51 -53 0
-50 -53 0
53 -51 50 0
-53 22 0
-22 52 53 0
47 -44 0
46 -44 0
44 -47 -46 0
-44 28 0
-47 -45 0
-46 -45 0
45 47 46 0
-45 28 0
-28 44 45 0
-55 -54 0
54 55 0
-54 51 0
-57 -56 0
56 57 0
-56 51 0
-51 54 56 0
-50 -49 0
-51 -49 0
49 50 51 0
-49 47 0
-47 49 0
42 -39 0
41 -39 0
39 -42 -41 0
-39 34 0
-42 -40 0
-41 -40 0
40 42 41 0
-40 34 0
-34 39 40 0
38 -36 0
37 -36 0
36 -38 -37 0
-36 10 0
-38 -35 0
-37 -35 0
35 38 37 0
-35 10 0
-10 36 35 0
-64 -63 0
63 64 0
-63 62 0
-68 -67 0
67 68 0
-67 62 0
-66 -65 0
65 66 0
-65 62 0
-60 -61 0
61 60 0
-61 62 0
-62 63 67 65 61 0
-51 -48 0
-50 -48 0
-46 -48 0
48 51 50 46 0
-48 42 0
-42 48 0
-41 -43 0
-51 -43 0
-50 -43 0
-46 -43 0
43 41 51 50 46 0
-43 38 0
-38 43 0
